; Query 20557 -- Type: InitialValues, Instructions: 81914071
(set-option :produce-models true)
(set-logic QF_AUFBV )
(declare-fun arg01 () (Array (_ BitVec 32) (_ BitVec 8) ) )
(declare-fun const_arr48 () (Array (_ BitVec 32) (_ BitVec 8) ) )
(declare-fun stdin () (Array (_ BitVec 32) (_ BitVec 8) ) )
(assert (=  (select const_arr48 (_ bv0 32) ) (_ bv0 8) ) )
(assert (=  (select const_arr48 (_ bv1 32) ) (_ bv0 8) ) )
(assert (=  (select const_arr48 (_ bv2 32) ) (_ bv0 8) ) )
(assert (=  (select const_arr48 (_ bv3 32) ) (_ bv0 8) ) )
(assert (=  (select const_arr48 (_ bv4 32) ) (_ bv0 8) ) )
(assert (=  (select const_arr48 (_ bv5 32) ) (_ bv0 8) ) )
(assert (=  (select const_arr48 (_ bv6 32) ) (_ bv0 8) ) )
(assert (=  (select const_arr48 (_ bv7 32) ) (_ bv0 8) ) )
(assert (=  (select const_arr48 (_ bv8 32) ) (_ bv0 8) ) )
(assert (=  (select const_arr48 (_ bv9 32) ) (_ bv0 8) ) )
(assert (=  (select const_arr48 (_ bv10 32) ) (_ bv0 8) ) )
(assert (=  (select const_arr48 (_ bv11 32) ) (_ bv0 8) ) )
(assert (=  (select const_arr48 (_ bv12 32) ) (_ bv0 8) ) )
(assert (=  (select const_arr48 (_ bv13 32) ) (_ bv0 8) ) )
(assert (=  (select const_arr48 (_ bv14 32) ) (_ bv0 8) ) )
(assert (=  (select const_arr48 (_ bv15 32) ) (_ bv0 8) ) )
(assert (=  (select const_arr48 (_ bv16 32) ) (_ bv0 8) ) )
(assert (=  (select const_arr48 (_ bv17 32) ) (_ bv0 8) ) )
(assert (=  (select const_arr48 (_ bv18 32) ) (_ bv0 8) ) )
(assert (=  (select const_arr48 (_ bv19 32) ) (_ bv0 8) ) )
(assert (=  (select const_arr48 (_ bv20 32) ) (_ bv0 8) ) )
(assert (=  (select const_arr48 (_ bv21 32) ) (_ bv0 8) ) )
(assert (=  (select const_arr48 (_ bv22 32) ) (_ bv0 8) ) )
(assert (=  (select const_arr48 (_ bv23 32) ) (_ bv0 8) ) )
(assert (=  (select const_arr48 (_ bv24 32) ) (_ bv0 8) ) )
(assert (=  (select const_arr48 (_ bv25 32) ) (_ bv0 8) ) )
(assert (=  (select const_arr48 (_ bv26 32) ) (_ bv0 8) ) )
(assert (=  (select const_arr48 (_ bv27 32) ) (_ bv0 8) ) )
(assert (=  (select const_arr48 (_ bv28 32) ) (_ bv0 8) ) )
(assert (=  (select const_arr48 (_ bv29 32) ) (_ bv0 8) ) )
(assert (=  (select const_arr48 (_ bv30 32) ) (_ bv0 8) ) )
(assert (=  (select const_arr48 (_ bv31 32) ) (_ bv0 8) ) )
(assert (=  (select const_arr48 (_ bv32 32) ) (_ bv0 8) ) )
(assert (=  (select const_arr48 (_ bv33 32) ) (_ bv0 8) ) )
(assert (=  (select const_arr48 (_ bv34 32) ) (_ bv0 8) ) )
(assert (=  (select const_arr48 (_ bv35 32) ) (_ bv0 8) ) )
(assert (=  (select const_arr48 (_ bv36 32) ) (_ bv0 8) ) )
(assert (=  (select const_arr48 (_ bv37 32) ) (_ bv0 8) ) )
(assert (=  (select const_arr48 (_ bv38 32) ) (_ bv0 8) ) )
(assert (=  (select const_arr48 (_ bv39 32) ) (_ bv0 8) ) )
(assert (=  (select const_arr48 (_ bv40 32) ) (_ bv0 8) ) )
(assert (=  (select const_arr48 (_ bv41 32) ) (_ bv0 8) ) )
(assert (=  (select const_arr48 (_ bv42 32) ) (_ bv0 8) ) )
(assert (=  (select const_arr48 (_ bv43 32) ) (_ bv0 8) ) )
(assert (=  (select const_arr48 (_ bv44 32) ) (_ bv0 8) ) )
(assert (=  (select const_arr48 (_ bv45 32) ) (_ bv0 8) ) )
(assert (=  (select const_arr48 (_ bv46 32) ) (_ bv0 8) ) )
(assert (=  (select const_arr48 (_ bv47 32) ) (_ bv0 8) ) )
(assert (=  (select const_arr48 (_ bv48 32) ) (_ bv0 8) ) )
(assert (=  (select const_arr48 (_ bv49 32) ) (_ bv0 8) ) )
(assert (=  (select const_arr48 (_ bv50 32) ) (_ bv0 8) ) )
(assert (=  (select const_arr48 (_ bv51 32) ) (_ bv0 8) ) )
(assert (=  (select const_arr48 (_ bv52 32) ) (_ bv0 8) ) )
(assert (=  (select const_arr48 (_ bv53 32) ) (_ bv0 8) ) )
(assert (=  (select const_arr48 (_ bv54 32) ) (_ bv0 8) ) )
(assert (=  (select const_arr48 (_ bv55 32) ) (_ bv0 8) ) )
(assert (=  (select const_arr48 (_ bv56 32) ) (_ bv0 8) ) )
(assert (=  (select const_arr48 (_ bv57 32) ) (_ bv0 8) ) )
(assert (=  (select const_arr48 (_ bv58 32) ) (_ bv0 8) ) )
(assert (=  (select const_arr48 (_ bv59 32) ) (_ bv0 8) ) )
(assert (=  (select const_arr48 (_ bv60 32) ) (_ bv0 8) ) )
(assert (=  (select const_arr48 (_ bv61 32) ) (_ bv0 8) ) )
(assert (=  (select const_arr48 (_ bv62 32) ) (_ bv0 8) ) )
(assert (=  (select const_arr48 (_ bv63 32) ) (_ bv0 8) ) )
(assert (=  (select const_arr48 (_ bv64 32) ) (_ bv0 8) ) )
(assert (=  (select const_arr48 (_ bv65 32) ) (_ bv0 8) ) )
(assert (=  (select const_arr48 (_ bv66 32) ) (_ bv0 8) ) )
(assert (=  (select const_arr48 (_ bv67 32) ) (_ bv0 8) ) )
(assert (=  (select const_arr48 (_ bv68 32) ) (_ bv0 8) ) )
(assert (=  (select const_arr48 (_ bv69 32) ) (_ bv0 8) ) )
(assert (=  (select const_arr48 (_ bv70 32) ) (_ bv0 8) ) )
(assert (=  (select const_arr48 (_ bv71 32) ) (_ bv0 8) ) )
(assert (=  (select const_arr48 (_ bv72 32) ) (_ bv0 8) ) )
(assert (=  (select const_arr48 (_ bv73 32) ) (_ bv0 8) ) )
(assert (=  (select const_arr48 (_ bv74 32) ) (_ bv0 8) ) )
(assert (=  (select const_arr48 (_ bv75 32) ) (_ bv0 8) ) )
(assert (=  (select const_arr48 (_ bv76 32) ) (_ bv0 8) ) )
(assert (=  (select const_arr48 (_ bv77 32) ) (_ bv0 8) ) )
(assert (=  (select const_arr48 (_ bv78 32) ) (_ bv0 8) ) )
(assert (=  (select const_arr48 (_ bv79 32) ) (_ bv0 8) ) )
(assert (=  (select const_arr48 (_ bv80 32) ) (_ bv0 8) ) )
(assert (=  (select const_arr48 (_ bv81 32) ) (_ bv0 8) ) )
(assert (=  (select const_arr48 (_ bv82 32) ) (_ bv0 8) ) )
(assert (=  (select const_arr48 (_ bv83 32) ) (_ bv0 8) ) )
(assert (=  (select const_arr48 (_ bv84 32) ) (_ bv0 8) ) )
(assert (=  (select const_arr48 (_ bv85 32) ) (_ bv0 8) ) )
(assert (=  (select const_arr48 (_ bv86 32) ) (_ bv0 8) ) )
(assert (=  (select const_arr48 (_ bv87 32) ) (_ bv0 8) ) )
(assert (=  (select const_arr48 (_ bv88 32) ) (_ bv0 8) ) )
(assert (=  (select const_arr48 (_ bv89 32) ) (_ bv0 8) ) )
(assert (=  (select const_arr48 (_ bv90 32) ) (_ bv0 8) ) )
(assert (=  (select const_arr48 (_ bv91 32) ) (_ bv0 8) ) )
(assert (=  (select const_arr48 (_ bv92 32) ) (_ bv0 8) ) )
(assert (=  (select const_arr48 (_ bv93 32) ) (_ bv0 8) ) )
(assert (=  (select const_arr48 (_ bv94 32) ) (_ bv0 8) ) )
(assert (=  (select const_arr48 (_ bv95 32) ) (_ bv0 8) ) )
(assert (=  (select const_arr48 (_ bv96 32) ) (_ bv0 8) ) )
(assert (=  (select const_arr48 (_ bv97 32) ) (_ bv0 8) ) )
(assert (=  (select const_arr48 (_ bv98 32) ) (_ bv0 8) ) )
(assert (=  (select const_arr48 (_ bv99 32) ) (_ bv0 8) ) )
(assert (=  (select const_arr48 (_ bv100 32) ) (_ bv0 8) ) )
(assert (=  (select const_arr48 (_ bv101 32) ) (_ bv0 8) ) )
(assert (=  (select const_arr48 (_ bv102 32) ) (_ bv0 8) ) )
(assert (=  (select const_arr48 (_ bv103 32) ) (_ bv0 8) ) )
(assert (=  (select const_arr48 (_ bv104 32) ) (_ bv0 8) ) )
(assert (=  (select const_arr48 (_ bv105 32) ) (_ bv0 8) ) )
(assert (=  (select const_arr48 (_ bv106 32) ) (_ bv0 8) ) )
(assert (=  (select const_arr48 (_ bv107 32) ) (_ bv0 8) ) )
(assert (=  (select const_arr48 (_ bv108 32) ) (_ bv0 8) ) )
(assert (=  (select const_arr48 (_ bv109 32) ) (_ bv0 8) ) )
(assert (=  (select const_arr48 (_ bv110 32) ) (_ bv0 8) ) )
(assert (=  (select const_arr48 (_ bv111 32) ) (_ bv0 8) ) )
(assert (=  (select const_arr48 (_ bv112 32) ) (_ bv0 8) ) )
(assert (=  (select const_arr48 (_ bv113 32) ) (_ bv0 8) ) )
(assert (=  (select const_arr48 (_ bv114 32) ) (_ bv0 8) ) )
(assert (=  (select const_arr48 (_ bv115 32) ) (_ bv0 8) ) )
(assert (=  (select const_arr48 (_ bv116 32) ) (_ bv0 8) ) )
(assert (=  (select const_arr48 (_ bv117 32) ) (_ bv0 8) ) )
(assert (=  (select const_arr48 (_ bv118 32) ) (_ bv0 8) ) )
(assert (=  (select const_arr48 (_ bv119 32) ) (_ bv0 8) ) )
(assert (=  (select const_arr48 (_ bv120 32) ) (_ bv0 8) ) )
(assert (=  (select const_arr48 (_ bv121 32) ) (_ bv0 8) ) )
(assert (=  (select const_arr48 (_ bv122 32) ) (_ bv0 8) ) )
(assert (=  (select const_arr48 (_ bv123 32) ) (_ bv0 8) ) )
(assert (=  (select const_arr48 (_ bv124 32) ) (_ bv0 8) ) )
(assert (=  (select const_arr48 (_ bv125 32) ) (_ bv0 8) ) )
(assert (=  (select const_arr48 (_ bv126 32) ) (_ bv0 8) ) )
(assert (=  (select const_arr48 (_ bv127 32) ) (_ bv0 8) ) )
(assert (=  (select const_arr48 (_ bv128 32) ) (_ bv0 8) ) )
(assert (=  (select const_arr48 (_ bv129 32) ) (_ bv0 8) ) )
(assert (=  (select const_arr48 (_ bv130 32) ) (_ bv0 8) ) )
(assert (=  (select const_arr48 (_ bv131 32) ) (_ bv0 8) ) )
(assert (=  (select const_arr48 (_ bv132 32) ) (_ bv0 8) ) )
(assert (=  (select const_arr48 (_ bv133 32) ) (_ bv0 8) ) )
(assert (=  (select const_arr48 (_ bv134 32) ) (_ bv0 8) ) )
(assert (=  (select const_arr48 (_ bv135 32) ) (_ bv0 8) ) )
(assert (=  (select const_arr48 (_ bv136 32) ) (_ bv0 8) ) )
(assert (=  (select const_arr48 (_ bv137 32) ) (_ bv0 8) ) )
(assert (=  (select const_arr48 (_ bv138 32) ) (_ bv0 8) ) )
(assert (=  (select const_arr48 (_ bv139 32) ) (_ bv0 8) ) )
(assert (=  (select const_arr48 (_ bv140 32) ) (_ bv0 8) ) )
(assert (=  (select const_arr48 (_ bv141 32) ) (_ bv0 8) ) )
(assert (=  (select const_arr48 (_ bv142 32) ) (_ bv0 8) ) )
(assert (=  (select const_arr48 (_ bv143 32) ) (_ bv0 8) ) )
(assert (=  (select const_arr48 (_ bv144 32) ) (_ bv0 8) ) )
(assert (=  (select const_arr48 (_ bv145 32) ) (_ bv0 8) ) )
(assert (=  (select const_arr48 (_ bv146 32) ) (_ bv0 8) ) )
(assert (=  (select const_arr48 (_ bv147 32) ) (_ bv0 8) ) )
(assert (=  (select const_arr48 (_ bv148 32) ) (_ bv0 8) ) )
(assert (=  (select const_arr48 (_ bv149 32) ) (_ bv0 8) ) )
(assert (=  (select const_arr48 (_ bv150 32) ) (_ bv0 8) ) )
(assert (=  (select const_arr48 (_ bv151 32) ) (_ bv0 8) ) )
(assert (=  (select const_arr48 (_ bv152 32) ) (_ bv0 8) ) )
(assert (=  (select const_arr48 (_ bv153 32) ) (_ bv0 8) ) )
(assert (=  (select const_arr48 (_ bv154 32) ) (_ bv0 8) ) )
(assert (=  (select const_arr48 (_ bv155 32) ) (_ bv0 8) ) )
(assert (=  (select const_arr48 (_ bv156 32) ) (_ bv0 8) ) )
(assert (=  (select const_arr48 (_ bv157 32) ) (_ bv0 8) ) )
(assert (=  (select const_arr48 (_ bv158 32) ) (_ bv0 8) ) )
(assert (=  (select const_arr48 (_ bv159 32) ) (_ bv0 8) ) )
(assert (=  (select const_arr48 (_ bv160 32) ) (_ bv0 8) ) )
(assert (=  (select const_arr48 (_ bv161 32) ) (_ bv0 8) ) )
(assert (=  (select const_arr48 (_ bv162 32) ) (_ bv0 8) ) )
(assert (=  (select const_arr48 (_ bv163 32) ) (_ bv0 8) ) )
(assert (=  (select const_arr48 (_ bv164 32) ) (_ bv0 8) ) )
(assert (=  (select const_arr48 (_ bv165 32) ) (_ bv0 8) ) )
(assert (=  (select const_arr48 (_ bv166 32) ) (_ bv0 8) ) )
(assert (=  (select const_arr48 (_ bv167 32) ) (_ bv0 8) ) )
(assert (=  (select const_arr48 (_ bv168 32) ) (_ bv0 8) ) )
(assert (=  (select const_arr48 (_ bv169 32) ) (_ bv0 8) ) )
(assert (=  (select const_arr48 (_ bv170 32) ) (_ bv0 8) ) )
(assert (=  (select const_arr48 (_ bv171 32) ) (_ bv0 8) ) )
(assert (=  (select const_arr48 (_ bv172 32) ) (_ bv0 8) ) )
(assert (=  (select const_arr48 (_ bv173 32) ) (_ bv0 8) ) )
(assert (=  (select const_arr48 (_ bv174 32) ) (_ bv0 8) ) )
(assert (=  (select const_arr48 (_ bv175 32) ) (_ bv0 8) ) )
(assert (=  (select const_arr48 (_ bv176 32) ) (_ bv0 8) ) )
(assert (=  (select const_arr48 (_ bv177 32) ) (_ bv0 8) ) )
(assert (=  (select const_arr48 (_ bv178 32) ) (_ bv0 8) ) )
(assert (=  (select const_arr48 (_ bv179 32) ) (_ bv0 8) ) )
(assert (=  (select const_arr48 (_ bv180 32) ) (_ bv0 8) ) )
(assert (=  (select const_arr48 (_ bv181 32) ) (_ bv0 8) ) )
(assert (=  (select const_arr48 (_ bv182 32) ) (_ bv0 8) ) )
(assert (=  (select const_arr48 (_ bv183 32) ) (_ bv0 8) ) )
(assert (=  (select const_arr48 (_ bv184 32) ) (_ bv0 8) ) )
(assert (=  (select const_arr48 (_ bv185 32) ) (_ bv0 8) ) )
(assert (=  (select const_arr48 (_ bv186 32) ) (_ bv0 8) ) )
(assert (=  (select const_arr48 (_ bv187 32) ) (_ bv0 8) ) )
(assert (=  (select const_arr48 (_ bv188 32) ) (_ bv0 8) ) )
(assert (=  (select const_arr48 (_ bv189 32) ) (_ bv0 8) ) )
(assert (=  (select const_arr48 (_ bv190 32) ) (_ bv0 8) ) )
(assert (=  (select const_arr48 (_ bv191 32) ) (_ bv0 8) ) )
(assert (=  (select const_arr48 (_ bv192 32) ) (_ bv0 8) ) )
(assert (=  (select const_arr48 (_ bv193 32) ) (_ bv0 8) ) )
(assert (=  (select const_arr48 (_ bv194 32) ) (_ bv0 8) ) )
(assert (=  (select const_arr48 (_ bv195 32) ) (_ bv0 8) ) )
(assert (=  (select const_arr48 (_ bv196 32) ) (_ bv0 8) ) )
(assert (=  (select const_arr48 (_ bv197 32) ) (_ bv0 8) ) )
(assert (=  (select const_arr48 (_ bv198 32) ) (_ bv0 8) ) )
(assert (=  (select const_arr48 (_ bv199 32) ) (_ bv0 8) ) )
(assert (=  (select const_arr48 (_ bv200 32) ) (_ bv0 8) ) )
(assert (=  (select const_arr48 (_ bv201 32) ) (_ bv0 8) ) )
(assert (=  (select const_arr48 (_ bv202 32) ) (_ bv0 8) ) )
(assert (=  (select const_arr48 (_ bv203 32) ) (_ bv0 8) ) )
(assert (=  (select const_arr48 (_ bv204 32) ) (_ bv0 8) ) )
(assert (=  (select const_arr48 (_ bv205 32) ) (_ bv0 8) ) )
(assert (=  (select const_arr48 (_ bv206 32) ) (_ bv0 8) ) )
(assert (=  (select const_arr48 (_ bv207 32) ) (_ bv0 8) ) )
(assert (=  (select const_arr48 (_ bv208 32) ) (_ bv0 8) ) )
(assert (=  (select const_arr48 (_ bv209 32) ) (_ bv0 8) ) )
(assert (=  (select const_arr48 (_ bv210 32) ) (_ bv0 8) ) )
(assert (=  (select const_arr48 (_ bv211 32) ) (_ bv0 8) ) )
(assert (=  (select const_arr48 (_ bv212 32) ) (_ bv0 8) ) )
(assert (=  (select const_arr48 (_ bv213 32) ) (_ bv0 8) ) )
(assert (=  (select const_arr48 (_ bv214 32) ) (_ bv0 8) ) )
(assert (=  (select const_arr48 (_ bv215 32) ) (_ bv0 8) ) )
(assert (=  (select const_arr48 (_ bv216 32) ) (_ bv0 8) ) )
(assert (=  (select const_arr48 (_ bv217 32) ) (_ bv0 8) ) )
(assert (=  (select const_arr48 (_ bv218 32) ) (_ bv0 8) ) )
(assert (=  (select const_arr48 (_ bv219 32) ) (_ bv0 8) ) )
(assert (=  (select const_arr48 (_ bv220 32) ) (_ bv0 8) ) )
(assert (=  (select const_arr48 (_ bv221 32) ) (_ bv0 8) ) )
(assert (=  (select const_arr48 (_ bv222 32) ) (_ bv0 8) ) )
(assert (=  (select const_arr48 (_ bv223 32) ) (_ bv0 8) ) )
(assert (=  (select const_arr48 (_ bv224 32) ) (_ bv0 8) ) )
(assert (=  (select const_arr48 (_ bv225 32) ) (_ bv0 8) ) )
(assert (=  (select const_arr48 (_ bv226 32) ) (_ bv0 8) ) )
(assert (=  (select const_arr48 (_ bv227 32) ) (_ bv0 8) ) )
(assert (=  (select const_arr48 (_ bv228 32) ) (_ bv0 8) ) )
(assert (=  (select const_arr48 (_ bv229 32) ) (_ bv0 8) ) )
(assert (=  (select const_arr48 (_ bv230 32) ) (_ bv0 8) ) )
(assert (=  (select const_arr48 (_ bv231 32) ) (_ bv0 8) ) )
(assert (=  (select const_arr48 (_ bv232 32) ) (_ bv0 8) ) )
(assert (=  (select const_arr48 (_ bv233 32) ) (_ bv0 8) ) )
(assert (=  (select const_arr48 (_ bv234 32) ) (_ bv0 8) ) )
(assert (=  (select const_arr48 (_ bv235 32) ) (_ bv0 8) ) )
(assert (=  (select const_arr48 (_ bv236 32) ) (_ bv0 8) ) )
(assert (=  (select const_arr48 (_ bv237 32) ) (_ bv0 8) ) )
(assert (=  (select const_arr48 (_ bv238 32) ) (_ bv0 8) ) )
(assert (=  (select const_arr48 (_ bv239 32) ) (_ bv0 8) ) )
(assert (=  (select const_arr48 (_ bv240 32) ) (_ bv0 8) ) )
(assert (=  (select const_arr48 (_ bv241 32) ) (_ bv0 8) ) )
(assert (=  (select const_arr48 (_ bv242 32) ) (_ bv0 8) ) )
(assert (=  (select const_arr48 (_ bv243 32) ) (_ bv0 8) ) )
(assert (=  (select const_arr48 (_ bv244 32) ) (_ bv0 8) ) )
(assert (=  (select const_arr48 (_ bv245 32) ) (_ bv0 8) ) )
(assert (=  (select const_arr48 (_ bv246 32) ) (_ bv0 8) ) )
(assert (=  (select const_arr48 (_ bv247 32) ) (_ bv0 8) ) )
(assert (=  (select const_arr48 (_ bv248 32) ) (_ bv0 8) ) )
(assert (=  (select const_arr48 (_ bv249 32) ) (_ bv0 8) ) )
(assert (=  (select const_arr48 (_ bv250 32) ) (_ bv0 8) ) )
(assert (=  (select const_arr48 (_ bv251 32) ) (_ bv0 8) ) )
(assert (=  (select const_arr48 (_ bv252 32) ) (_ bv0 8) ) )
(assert (=  (select const_arr48 (_ bv253 32) ) (_ bv0 8) ) )
(assert (=  (select const_arr48 (_ bv254 32) ) (_ bv0 8) ) )
(assert (=  (select const_arr48 (_ bv255 32) ) (_ bv0 8) ) )
(assert (let ( (?B1 (select  arg01 (_ bv0 32) ) ) ) (and  (and  (and  (and  (and  (and  (and  (and  (and  (and  (and  (and  (and  (and  (and  (and  (and  (and  (and  (and  (and  (and  (and  (and  (and  (and  (and  (and  (and  (and  (and  (and  (and  (and  (and  (and  (and  (and  (and  (and  (and  (and  (and  (and  (and  (and  (and  (and  (and  (and  (and  (and  (and  (and  (and  (and  (and  (and  (and  (and  (and  (and  (and  (and  (and  (and  (and  (and  (and  (and  (and  (and  (and  (and  (and  (and  (and  (and  (and  (and  (and  (and  (and  (and  (and  (and  (and  (and  (and  (and  (and  (and  (and  (and  (and  (and  (and  (and  (=  false (=  (_ bv0 8) (select  (store  const_arr48 ((_ extract 31  0)  ((_ sign_extend 32)  ((_ zero_extend 24)  ?B1 ) ) ) (_ bv1 8) ) ((_ extract 31  0)  ((_ zero_extend 56)  (select  stdin (_ bv95 32) ) ) ) ) ) ) (=  false (=  (_ bv45 8) ?B1 ) ) ) (=  false (=  (_ bv0 8) ?B1 ) ) ) (=  false (=  (_ bv92 8) ?B1 ) ) ) (=  (_ bv0 8) (select  (store  const_arr48 ((_ extract 31  0)  ((_ sign_extend 32)  ((_ zero_extend 24)  ?B1 ) ) ) (_ bv1 8) ) ((_ extract 31  0)  ((_ zero_extend 56)  (select  stdin (_ bv0 32) ) ) ) ) ) ) (=  false (=  (_ bv0 8) (select  (store  const_arr48 ((_ extract 31  0)  ((_ sign_extend 32)  ((_ zero_extend 24)  ?B1 ) ) ) (_ bv1 8) ) ((_ extract 31  0)  ((_ zero_extend 56)  (select  stdin (_ bv1 32) ) ) ) ) ) ) ) (=  (_ bv0 8) (select  (store  const_arr48 ((_ extract 31  0)  ((_ sign_extend 32)  ((_ zero_extend 24)  ?B1 ) ) ) (_ bv1 8) ) ((_ extract 31  0)  ((_ zero_extend 56)  (select  stdin (_ bv2 32) ) ) ) ) ) ) (=  (_ bv0 8) (select  (store  const_arr48 ((_ extract 31  0)  ((_ sign_extend 32)  ((_ zero_extend 24)  ?B1 ) ) ) (_ bv1 8) ) ((_ extract 31  0)  ((_ zero_extend 56)  (select  stdin (_ bv3 32) ) ) ) ) ) ) (=  (_ bv0 8) (select  (store  const_arr48 ((_ extract 31  0)  ((_ sign_extend 32)  ((_ zero_extend 24)  ?B1 ) ) ) (_ bv1 8) ) ((_ extract 31  0)  ((_ zero_extend 56)  (select  stdin (_ bv4 32) ) ) ) ) ) ) (=  (_ bv0 8) (select  (store  const_arr48 ((_ extract 31  0)  ((_ sign_extend 32)  ((_ zero_extend 24)  ?B1 ) ) ) (_ bv1 8) ) ((_ extract 31  0)  ((_ zero_extend 56)  (select  stdin (_ bv5 32) ) ) ) ) ) ) (=  (_ bv0 8) (select  (store  const_arr48 ((_ extract 31  0)  ((_ sign_extend 32)  ((_ zero_extend 24)  ?B1 ) ) ) (_ bv1 8) ) ((_ extract 31  0)  ((_ zero_extend 56)  (select  stdin (_ bv6 32) ) ) ) ) ) ) (=  false (=  (_ bv0 8) (select  (store  const_arr48 ((_ extract 31  0)  ((_ sign_extend 32)  ((_ zero_extend 24)  ?B1 ) ) ) (_ bv1 8) ) ((_ extract 31  0)  ((_ zero_extend 56)  (select  stdin (_ bv7 32) ) ) ) ) ) ) ) (=  (_ bv0 8) (select  (store  const_arr48 ((_ extract 31  0)  ((_ sign_extend 32)  ((_ zero_extend 24)  ?B1 ) ) ) (_ bv1 8) ) ((_ extract 31  0)  ((_ zero_extend 56)  (select  stdin (_ bv8 32) ) ) ) ) ) ) (=  false (=  (_ bv0 8) (select  (store  const_arr48 ((_ extract 31  0)  ((_ sign_extend 32)  ((_ zero_extend 24)  ?B1 ) ) ) (_ bv1 8) ) ((_ extract 31  0)  ((_ zero_extend 56)  (select  stdin (_ bv9 32) ) ) ) ) ) ) ) (=  false (=  (_ bv0 8) (select  (store  const_arr48 ((_ extract 31  0)  ((_ sign_extend 32)  ((_ zero_extend 24)  ?B1 ) ) ) (_ bv1 8) ) ((_ extract 31  0)  ((_ zero_extend 56)  (select  stdin (_ bv10 32) ) ) ) ) ) ) ) (=  (_ bv0 8) (select  (store  const_arr48 ((_ extract 31  0)  ((_ sign_extend 32)  ((_ zero_extend 24)  ?B1 ) ) ) (_ bv1 8) ) ((_ extract 31  0)  ((_ zero_extend 56)  (select  stdin (_ bv11 32) ) ) ) ) ) ) (=  false (=  (_ bv0 8) (select  (store  const_arr48 ((_ extract 31  0)  ((_ sign_extend 32)  ((_ zero_extend 24)  ?B1 ) ) ) (_ bv1 8) ) ((_ extract 31  0)  ((_ zero_extend 56)  (select  stdin (_ bv12 32) ) ) ) ) ) ) ) (=  (_ bv0 8) (select  (store  const_arr48 ((_ extract 31  0)  ((_ sign_extend 32)  ((_ zero_extend 24)  ?B1 ) ) ) (_ bv1 8) ) ((_ extract 31  0)  ((_ zero_extend 56)  (select  stdin (_ bv13 32) ) ) ) ) ) ) (=  false (=  (_ bv0 8) (select  (store  const_arr48 ((_ extract 31  0)  ((_ sign_extend 32)  ((_ zero_extend 24)  ?B1 ) ) ) (_ bv1 8) ) ((_ extract 31  0)  ((_ zero_extend 56)  (select  stdin (_ bv14 32) ) ) ) ) ) ) ) (=  false (=  (_ bv0 8) (select  (store  const_arr48 ((_ extract 31  0)  ((_ sign_extend 32)  ((_ zero_extend 24)  ?B1 ) ) ) (_ bv1 8) ) ((_ extract 31  0)  ((_ zero_extend 56)  (select  stdin (_ bv15 32) ) ) ) ) ) ) ) (=  (_ bv0 8) (select  (store  const_arr48 ((_ extract 31  0)  ((_ sign_extend 32)  ((_ zero_extend 24)  ?B1 ) ) ) (_ bv1 8) ) ((_ extract 31  0)  ((_ zero_extend 56)  (select  stdin (_ bv16 32) ) ) ) ) ) ) (=  (_ bv0 8) (select  (store  const_arr48 ((_ extract 31  0)  ((_ sign_extend 32)  ((_ zero_extend 24)  ?B1 ) ) ) (_ bv1 8) ) ((_ extract 31  0)  ((_ zero_extend 56)  (select  stdin (_ bv17 32) ) ) ) ) ) ) (=  false (=  (_ bv0 8) (select  (store  const_arr48 ((_ extract 31  0)  ((_ sign_extend 32)  ((_ zero_extend 24)  ?B1 ) ) ) (_ bv1 8) ) ((_ extract 31  0)  ((_ zero_extend 56)  (select  stdin (_ bv18 32) ) ) ) ) ) ) ) (=  (_ bv0 8) (select  (store  const_arr48 ((_ extract 31  0)  ((_ sign_extend 32)  ((_ zero_extend 24)  ?B1 ) ) ) (_ bv1 8) ) ((_ extract 31  0)  ((_ zero_extend 56)  (select  stdin (_ bv19 32) ) ) ) ) ) ) (=  false (=  (_ bv0 8) (select  (store  const_arr48 ((_ extract 31  0)  ((_ sign_extend 32)  ((_ zero_extend 24)  ?B1 ) ) ) (_ bv1 8) ) ((_ extract 31  0)  ((_ zero_extend 56)  (select  stdin (_ bv20 32) ) ) ) ) ) ) ) (=  false (=  (_ bv0 8) (select  (store  const_arr48 ((_ extract 31  0)  ((_ sign_extend 32)  ((_ zero_extend 24)  ?B1 ) ) ) (_ bv1 8) ) ((_ extract 31  0)  ((_ zero_extend 56)  (select  stdin (_ bv21 32) ) ) ) ) ) ) ) (=  (_ bv0 8) (select  (store  const_arr48 ((_ extract 31  0)  ((_ sign_extend 32)  ((_ zero_extend 24)  ?B1 ) ) ) (_ bv1 8) ) ((_ extract 31  0)  ((_ zero_extend 56)  (select  stdin (_ bv22 32) ) ) ) ) ) ) (=  false (=  (_ bv0 8) (select  (store  const_arr48 ((_ extract 31  0)  ((_ sign_extend 32)  ((_ zero_extend 24)  ?B1 ) ) ) (_ bv1 8) ) ((_ extract 31  0)  ((_ zero_extend 56)  (select  stdin (_ bv23 32) ) ) ) ) ) ) ) (=  (_ bv0 8) (select  (store  const_arr48 ((_ extract 31  0)  ((_ sign_extend 32)  ((_ zero_extend 24)  ?B1 ) ) ) (_ bv1 8) ) ((_ extract 31  0)  ((_ zero_extend 56)  (select  stdin (_ bv24 32) ) ) ) ) ) ) (=  false (=  (_ bv0 8) (select  (store  const_arr48 ((_ extract 31  0)  ((_ sign_extend 32)  ((_ zero_extend 24)  ?B1 ) ) ) (_ bv1 8) ) ((_ extract 31  0)  ((_ zero_extend 56)  (select  stdin (_ bv25 32) ) ) ) ) ) ) ) (=  false (=  (_ bv0 8) (select  (store  const_arr48 ((_ extract 31  0)  ((_ sign_extend 32)  ((_ zero_extend 24)  ?B1 ) ) ) (_ bv1 8) ) ((_ extract 31  0)  ((_ zero_extend 56)  (select  stdin (_ bv26 32) ) ) ) ) ) ) ) (=  (_ bv0 8) (select  (store  const_arr48 ((_ extract 31  0)  ((_ sign_extend 32)  ((_ zero_extend 24)  ?B1 ) ) ) (_ bv1 8) ) ((_ extract 31  0)  ((_ zero_extend 56)  (select  stdin (_ bv27 32) ) ) ) ) ) ) (=  false (=  (_ bv0 8) (select  (store  const_arr48 ((_ extract 31  0)  ((_ sign_extend 32)  ((_ zero_extend 24)  ?B1 ) ) ) (_ bv1 8) ) ((_ extract 31  0)  ((_ zero_extend 56)  (select  stdin (_ bv28 32) ) ) ) ) ) ) ) (=  false (=  (_ bv0 8) (select  (store  const_arr48 ((_ extract 31  0)  ((_ sign_extend 32)  ((_ zero_extend 24)  ?B1 ) ) ) (_ bv1 8) ) ((_ extract 31  0)  ((_ zero_extend 56)  (select  stdin (_ bv29 32) ) ) ) ) ) ) ) (=  false (=  (_ bv0 8) (select  (store  const_arr48 ((_ extract 31  0)  ((_ sign_extend 32)  ((_ zero_extend 24)  ?B1 ) ) ) (_ bv1 8) ) ((_ extract 31  0)  ((_ zero_extend 56)  (select  stdin (_ bv30 32) ) ) ) ) ) ) ) (=  false (=  (_ bv0 8) (select  (store  const_arr48 ((_ extract 31  0)  ((_ sign_extend 32)  ((_ zero_extend 24)  ?B1 ) ) ) (_ bv1 8) ) ((_ extract 31  0)  ((_ zero_extend 56)  (select  stdin (_ bv31 32) ) ) ) ) ) ) ) (=  false (=  (_ bv0 8) (select  (store  const_arr48 ((_ extract 31  0)  ((_ sign_extend 32)  ((_ zero_extend 24)  ?B1 ) ) ) (_ bv1 8) ) ((_ extract 31  0)  ((_ zero_extend 56)  (select  stdin (_ bv32 32) ) ) ) ) ) ) ) (=  false (=  (_ bv0 8) (select  (store  const_arr48 ((_ extract 31  0)  ((_ sign_extend 32)  ((_ zero_extend 24)  ?B1 ) ) ) (_ bv1 8) ) ((_ extract 31  0)  ((_ zero_extend 56)  (select  stdin (_ bv33 32) ) ) ) ) ) ) ) (=  false (=  (_ bv0 8) (select  (store  const_arr48 ((_ extract 31  0)  ((_ sign_extend 32)  ((_ zero_extend 24)  ?B1 ) ) ) (_ bv1 8) ) ((_ extract 31  0)  ((_ zero_extend 56)  (select  stdin (_ bv34 32) ) ) ) ) ) ) ) (=  false (=  (_ bv0 8) (select  (store  const_arr48 ((_ extract 31  0)  ((_ sign_extend 32)  ((_ zero_extend 24)  ?B1 ) ) ) (_ bv1 8) ) ((_ extract 31  0)  ((_ zero_extend 56)  (select  stdin (_ bv35 32) ) ) ) ) ) ) ) (=  (_ bv0 8) (select  (store  const_arr48 ((_ extract 31  0)  ((_ sign_extend 32)  ((_ zero_extend 24)  ?B1 ) ) ) (_ bv1 8) ) ((_ extract 31  0)  ((_ zero_extend 56)  (select  stdin (_ bv36 32) ) ) ) ) ) ) (=  false (=  (_ bv0 8) (select  (store  const_arr48 ((_ extract 31  0)  ((_ sign_extend 32)  ((_ zero_extend 24)  ?B1 ) ) ) (_ bv1 8) ) ((_ extract 31  0)  ((_ zero_extend 56)  (select  stdin (_ bv37 32) ) ) ) ) ) ) ) (=  false (=  (_ bv0 8) (select  (store  const_arr48 ((_ extract 31  0)  ((_ sign_extend 32)  ((_ zero_extend 24)  ?B1 ) ) ) (_ bv1 8) ) ((_ extract 31  0)  ((_ zero_extend 56)  (select  stdin (_ bv38 32) ) ) ) ) ) ) ) (=  false (=  (_ bv0 8) (select  (store  const_arr48 ((_ extract 31  0)  ((_ sign_extend 32)  ((_ zero_extend 24)  ?B1 ) ) ) (_ bv1 8) ) ((_ extract 31  0)  ((_ zero_extend 56)  (select  stdin (_ bv39 32) ) ) ) ) ) ) ) (=  false (=  (_ bv0 8) (select  (store  const_arr48 ((_ extract 31  0)  ((_ sign_extend 32)  ((_ zero_extend 24)  ?B1 ) ) ) (_ bv1 8) ) ((_ extract 31  0)  ((_ zero_extend 56)  (select  stdin (_ bv40 32) ) ) ) ) ) ) ) (=  (_ bv0 8) (select  (store  const_arr48 ((_ extract 31  0)  ((_ sign_extend 32)  ((_ zero_extend 24)  ?B1 ) ) ) (_ bv1 8) ) ((_ extract 31  0)  ((_ zero_extend 56)  (select  stdin (_ bv41 32) ) ) ) ) ) ) (=  (_ bv0 8) (select  (store  const_arr48 ((_ extract 31  0)  ((_ sign_extend 32)  ((_ zero_extend 24)  ?B1 ) ) ) (_ bv1 8) ) ((_ extract 31  0)  ((_ zero_extend 56)  (select  stdin (_ bv42 32) ) ) ) ) ) ) (=  (_ bv0 8) (select  (store  const_arr48 ((_ extract 31  0)  ((_ sign_extend 32)  ((_ zero_extend 24)  ?B1 ) ) ) (_ bv1 8) ) ((_ extract 31  0)  ((_ zero_extend 56)  (select  stdin (_ bv43 32) ) ) ) ) ) ) (=  (_ bv0 8) (select  (store  const_arr48 ((_ extract 31  0)  ((_ sign_extend 32)  ((_ zero_extend 24)  ?B1 ) ) ) (_ bv1 8) ) ((_ extract 31  0)  ((_ zero_extend 56)  (select  stdin (_ bv44 32) ) ) ) ) ) ) (=  (_ bv0 8) (select  (store  const_arr48 ((_ extract 31  0)  ((_ sign_extend 32)  ((_ zero_extend 24)  ?B1 ) ) ) (_ bv1 8) ) ((_ extract 31  0)  ((_ zero_extend 56)  (select  stdin (_ bv45 32) ) ) ) ) ) ) (=  false (=  (_ bv0 8) (select  (store  const_arr48 ((_ extract 31  0)  ((_ sign_extend 32)  ((_ zero_extend 24)  ?B1 ) ) ) (_ bv1 8) ) ((_ extract 31  0)  ((_ zero_extend 56)  (select  stdin (_ bv46 32) ) ) ) ) ) ) ) (=  (_ bv0 8) (select  (store  const_arr48 ((_ extract 31  0)  ((_ sign_extend 32)  ((_ zero_extend 24)  ?B1 ) ) ) (_ bv1 8) ) ((_ extract 31  0)  ((_ zero_extend 56)  (select  stdin (_ bv47 32) ) ) ) ) ) ) (=  false (=  (_ bv0 8) (select  (store  const_arr48 ((_ extract 31  0)  ((_ sign_extend 32)  ((_ zero_extend 24)  ?B1 ) ) ) (_ bv1 8) ) ((_ extract 31  0)  ((_ zero_extend 56)  (select  stdin (_ bv48 32) ) ) ) ) ) ) ) (=  (_ bv0 8) (select  (store  const_arr48 ((_ extract 31  0)  ((_ sign_extend 32)  ((_ zero_extend 24)  ?B1 ) ) ) (_ bv1 8) ) ((_ extract 31  0)  ((_ zero_extend 56)  (select  stdin (_ bv49 32) ) ) ) ) ) ) (=  (_ bv0 8) (select  (store  const_arr48 ((_ extract 31  0)  ((_ sign_extend 32)  ((_ zero_extend 24)  ?B1 ) ) ) (_ bv1 8) ) ((_ extract 31  0)  ((_ zero_extend 56)  (select  stdin (_ bv50 32) ) ) ) ) ) ) (=  false (=  (_ bv0 8) (select  (store  const_arr48 ((_ extract 31  0)  ((_ sign_extend 32)  ((_ zero_extend 24)  ?B1 ) ) ) (_ bv1 8) ) ((_ extract 31  0)  ((_ zero_extend 56)  (select  stdin (_ bv51 32) ) ) ) ) ) ) ) (=  (_ bv0 8) (select  (store  const_arr48 ((_ extract 31  0)  ((_ sign_extend 32)  ((_ zero_extend 24)  ?B1 ) ) ) (_ bv1 8) ) ((_ extract 31  0)  ((_ zero_extend 56)  (select  stdin (_ bv52 32) ) ) ) ) ) ) (=  false (=  (_ bv0 8) (select  (store  const_arr48 ((_ extract 31  0)  ((_ sign_extend 32)  ((_ zero_extend 24)  ?B1 ) ) ) (_ bv1 8) ) ((_ extract 31  0)  ((_ zero_extend 56)  (select  stdin (_ bv53 32) ) ) ) ) ) ) ) (=  false (=  (_ bv0 8) (select  (store  const_arr48 ((_ extract 31  0)  ((_ sign_extend 32)  ((_ zero_extend 24)  ?B1 ) ) ) (_ bv1 8) ) ((_ extract 31  0)  ((_ zero_extend 56)  (select  stdin (_ bv54 32) ) ) ) ) ) ) ) (=  false (=  (_ bv0 8) (select  (store  const_arr48 ((_ extract 31  0)  ((_ sign_extend 32)  ((_ zero_extend 24)  ?B1 ) ) ) (_ bv1 8) ) ((_ extract 31  0)  ((_ zero_extend 56)  (select  stdin (_ bv55 32) ) ) ) ) ) ) ) (=  false (=  (_ bv0 8) (select  (store  const_arr48 ((_ extract 31  0)  ((_ sign_extend 32)  ((_ zero_extend 24)  ?B1 ) ) ) (_ bv1 8) ) ((_ extract 31  0)  ((_ zero_extend 56)  (select  stdin (_ bv56 32) ) ) ) ) ) ) ) (=  false (=  (_ bv0 8) (select  (store  const_arr48 ((_ extract 31  0)  ((_ sign_extend 32)  ((_ zero_extend 24)  ?B1 ) ) ) (_ bv1 8) ) ((_ extract 31  0)  ((_ zero_extend 56)  (select  stdin (_ bv57 32) ) ) ) ) ) ) ) (=  (_ bv0 8) (select  (store  const_arr48 ((_ extract 31  0)  ((_ sign_extend 32)  ((_ zero_extend 24)  ?B1 ) ) ) (_ bv1 8) ) ((_ extract 31  0)  ((_ zero_extend 56)  (select  stdin (_ bv58 32) ) ) ) ) ) ) (=  (_ bv0 8) (select  (store  const_arr48 ((_ extract 31  0)  ((_ sign_extend 32)  ((_ zero_extend 24)  ?B1 ) ) ) (_ bv1 8) ) ((_ extract 31  0)  ((_ zero_extend 56)  (select  stdin (_ bv59 32) ) ) ) ) ) ) (=  false (=  (_ bv0 8) (select  (store  const_arr48 ((_ extract 31  0)  ((_ sign_extend 32)  ((_ zero_extend 24)  ?B1 ) ) ) (_ bv1 8) ) ((_ extract 31  0)  ((_ zero_extend 56)  (select  stdin (_ bv60 32) ) ) ) ) ) ) ) (=  false (=  (_ bv0 8) (select  (store  const_arr48 ((_ extract 31  0)  ((_ sign_extend 32)  ((_ zero_extend 24)  ?B1 ) ) ) (_ bv1 8) ) ((_ extract 31  0)  ((_ zero_extend 56)  (select  stdin (_ bv61 32) ) ) ) ) ) ) ) (=  false (=  (_ bv0 8) (select  (store  const_arr48 ((_ extract 31  0)  ((_ sign_extend 32)  ((_ zero_extend 24)  ?B1 ) ) ) (_ bv1 8) ) ((_ extract 31  0)  ((_ zero_extend 56)  (select  stdin (_ bv62 32) ) ) ) ) ) ) ) (=  false (=  (_ bv0 8) (select  (store  const_arr48 ((_ extract 31  0)  ((_ sign_extend 32)  ((_ zero_extend 24)  ?B1 ) ) ) (_ bv1 8) ) ((_ extract 31  0)  ((_ zero_extend 56)  (select  stdin (_ bv63 32) ) ) ) ) ) ) ) (=  false (=  (_ bv0 8) (select  (store  const_arr48 ((_ extract 31  0)  ((_ sign_extend 32)  ((_ zero_extend 24)  ?B1 ) ) ) (_ bv1 8) ) ((_ extract 31  0)  ((_ zero_extend 56)  (select  stdin (_ bv64 32) ) ) ) ) ) ) ) (=  false (=  (_ bv0 8) (select  (store  const_arr48 ((_ extract 31  0)  ((_ sign_extend 32)  ((_ zero_extend 24)  ?B1 ) ) ) (_ bv1 8) ) ((_ extract 31  0)  ((_ zero_extend 56)  (select  stdin (_ bv65 32) ) ) ) ) ) ) ) (=  false (=  (_ bv0 8) (select  (store  const_arr48 ((_ extract 31  0)  ((_ sign_extend 32)  ((_ zero_extend 24)  ?B1 ) ) ) (_ bv1 8) ) ((_ extract 31  0)  ((_ zero_extend 56)  (select  stdin (_ bv66 32) ) ) ) ) ) ) ) (=  false (=  (_ bv0 8) (select  (store  const_arr48 ((_ extract 31  0)  ((_ sign_extend 32)  ((_ zero_extend 24)  ?B1 ) ) ) (_ bv1 8) ) ((_ extract 31  0)  ((_ zero_extend 56)  (select  stdin (_ bv67 32) ) ) ) ) ) ) ) (=  (_ bv0 8) (select  (store  const_arr48 ((_ extract 31  0)  ((_ sign_extend 32)  ((_ zero_extend 24)  ?B1 ) ) ) (_ bv1 8) ) ((_ extract 31  0)  ((_ zero_extend 56)  (select  stdin (_ bv68 32) ) ) ) ) ) ) (=  false (=  (_ bv0 8) (select  (store  const_arr48 ((_ extract 31  0)  ((_ sign_extend 32)  ((_ zero_extend 24)  ?B1 ) ) ) (_ bv1 8) ) ((_ extract 31  0)  ((_ zero_extend 56)  (select  stdin (_ bv69 32) ) ) ) ) ) ) ) (=  false (=  (_ bv0 8) (select  (store  const_arr48 ((_ extract 31  0)  ((_ sign_extend 32)  ((_ zero_extend 24)  ?B1 ) ) ) (_ bv1 8) ) ((_ extract 31  0)  ((_ zero_extend 56)  (select  stdin (_ bv70 32) ) ) ) ) ) ) ) (=  (_ bv0 8) (select  (store  const_arr48 ((_ extract 31  0)  ((_ sign_extend 32)  ((_ zero_extend 24)  ?B1 ) ) ) (_ bv1 8) ) ((_ extract 31  0)  ((_ zero_extend 56)  (select  stdin (_ bv71 32) ) ) ) ) ) ) (=  false (=  (_ bv0 8) (select  (store  const_arr48 ((_ extract 31  0)  ((_ sign_extend 32)  ((_ zero_extend 24)  ?B1 ) ) ) (_ bv1 8) ) ((_ extract 31  0)  ((_ zero_extend 56)  (select  stdin (_ bv72 32) ) ) ) ) ) ) ) (=  (_ bv0 8) (select  (store  const_arr48 ((_ extract 31  0)  ((_ sign_extend 32)  ((_ zero_extend 24)  ?B1 ) ) ) (_ bv1 8) ) ((_ extract 31  0)  ((_ zero_extend 56)  (select  stdin (_ bv73 32) ) ) ) ) ) ) (=  (_ bv0 8) (select  (store  const_arr48 ((_ extract 31  0)  ((_ sign_extend 32)  ((_ zero_extend 24)  ?B1 ) ) ) (_ bv1 8) ) ((_ extract 31  0)  ((_ zero_extend 56)  (select  stdin (_ bv74 32) ) ) ) ) ) ) (=  false (=  (_ bv0 8) (select  (store  const_arr48 ((_ extract 31  0)  ((_ sign_extend 32)  ((_ zero_extend 24)  ?B1 ) ) ) (_ bv1 8) ) ((_ extract 31  0)  ((_ zero_extend 56)  (select  stdin (_ bv75 32) ) ) ) ) ) ) ) (=  (_ bv0 8) (select  (store  const_arr48 ((_ extract 31  0)  ((_ sign_extend 32)  ((_ zero_extend 24)  ?B1 ) ) ) (_ bv1 8) ) ((_ extract 31  0)  ((_ zero_extend 56)  (select  stdin (_ bv76 32) ) ) ) ) ) ) (=  (_ bv0 8) (select  (store  const_arr48 ((_ extract 31  0)  ((_ sign_extend 32)  ((_ zero_extend 24)  ?B1 ) ) ) (_ bv1 8) ) ((_ extract 31  0)  ((_ zero_extend 56)  (select  stdin (_ bv77 32) ) ) ) ) ) ) (=  false (=  (_ bv0 8) (select  (store  const_arr48 ((_ extract 31  0)  ((_ sign_extend 32)  ((_ zero_extend 24)  ?B1 ) ) ) (_ bv1 8) ) ((_ extract 31  0)  ((_ zero_extend 56)  (select  stdin (_ bv78 32) ) ) ) ) ) ) ) (=  (_ bv0 8) (select  (store  const_arr48 ((_ extract 31  0)  ((_ sign_extend 32)  ((_ zero_extend 24)  ?B1 ) ) ) (_ bv1 8) ) ((_ extract 31  0)  ((_ zero_extend 56)  (select  stdin (_ bv79 32) ) ) ) ) ) ) (=  (_ bv0 8) (select  (store  const_arr48 ((_ extract 31  0)  ((_ sign_extend 32)  ((_ zero_extend 24)  ?B1 ) ) ) (_ bv1 8) ) ((_ extract 31  0)  ((_ zero_extend 56)  (select  stdin (_ bv80 32) ) ) ) ) ) ) (=  false (=  (_ bv0 8) (select  (store  const_arr48 ((_ extract 31  0)  ((_ sign_extend 32)  ((_ zero_extend 24)  ?B1 ) ) ) (_ bv1 8) ) ((_ extract 31  0)  ((_ zero_extend 56)  (select  stdin (_ bv81 32) ) ) ) ) ) ) ) (=  false (=  (_ bv0 8) (select  (store  const_arr48 ((_ extract 31  0)  ((_ sign_extend 32)  ((_ zero_extend 24)  ?B1 ) ) ) (_ bv1 8) ) ((_ extract 31  0)  ((_ zero_extend 56)  (select  stdin (_ bv82 32) ) ) ) ) ) ) ) (=  false (=  (_ bv0 8) (select  (store  const_arr48 ((_ extract 31  0)  ((_ sign_extend 32)  ((_ zero_extend 24)  ?B1 ) ) ) (_ bv1 8) ) ((_ extract 31  0)  ((_ zero_extend 56)  (select  stdin (_ bv83 32) ) ) ) ) ) ) ) (=  false (=  (_ bv0 8) (select  (store  const_arr48 ((_ extract 31  0)  ((_ sign_extend 32)  ((_ zero_extend 24)  ?B1 ) ) ) (_ bv1 8) ) ((_ extract 31  0)  ((_ zero_extend 56)  (select  stdin (_ bv84 32) ) ) ) ) ) ) ) (=  false (=  (_ bv0 8) (select  (store  const_arr48 ((_ extract 31  0)  ((_ sign_extend 32)  ((_ zero_extend 24)  ?B1 ) ) ) (_ bv1 8) ) ((_ extract 31  0)  ((_ zero_extend 56)  (select  stdin (_ bv85 32) ) ) ) ) ) ) ) (=  (_ bv0 8) (select  (store  const_arr48 ((_ extract 31  0)  ((_ sign_extend 32)  ((_ zero_extend 24)  ?B1 ) ) ) (_ bv1 8) ) ((_ extract 31  0)  ((_ zero_extend 56)  (select  stdin (_ bv86 32) ) ) ) ) ) ) (=  false (=  (_ bv0 8) (select  (store  const_arr48 ((_ extract 31  0)  ((_ sign_extend 32)  ((_ zero_extend 24)  ?B1 ) ) ) (_ bv1 8) ) ((_ extract 31  0)  ((_ zero_extend 56)  (select  stdin (_ bv87 32) ) ) ) ) ) ) ) (=  false (=  (_ bv0 8) (select  (store  const_arr48 ((_ extract 31  0)  ((_ sign_extend 32)  ((_ zero_extend 24)  ?B1 ) ) ) (_ bv1 8) ) ((_ extract 31  0)  ((_ zero_extend 56)  (select  stdin (_ bv88 32) ) ) ) ) ) ) ) (=  false (=  (_ bv0 8) (select  (store  const_arr48 ((_ extract 31  0)  ((_ sign_extend 32)  ((_ zero_extend 24)  ?B1 ) ) ) (_ bv1 8) ) ((_ extract 31  0)  ((_ zero_extend 56)  (select  stdin (_ bv89 32) ) ) ) ) ) ) ) (=  false (=  (_ bv0 8) (select  (store  const_arr48 ((_ extract 31  0)  ((_ sign_extend 32)  ((_ zero_extend 24)  ?B1 ) ) ) (_ bv1 8) ) ((_ extract 31  0)  ((_ zero_extend 56)  (select  stdin (_ bv90 32) ) ) ) ) ) ) ) (=  (_ bv0 8) (select  (store  const_arr48 ((_ extract 31  0)  ((_ sign_extend 32)  ((_ zero_extend 24)  ?B1 ) ) ) (_ bv1 8) ) ((_ extract 31  0)  ((_ zero_extend 56)  (select  stdin (_ bv91 32) ) ) ) ) ) ) (=  (_ bv0 8) (select  (store  const_arr48 ((_ extract 31  0)  ((_ sign_extend 32)  ((_ zero_extend 24)  ?B1 ) ) ) (_ bv1 8) ) ((_ extract 31  0)  ((_ zero_extend 56)  (select  stdin (_ bv92 32) ) ) ) ) ) ) (=  false (=  (_ bv0 8) (select  (store  const_arr48 ((_ extract 31  0)  ((_ sign_extend 32)  ((_ zero_extend 24)  ?B1 ) ) ) (_ bv1 8) ) ((_ extract 31  0)  ((_ zero_extend 56)  (select  stdin (_ bv93 32) ) ) ) ) ) ) ) (=  (_ bv0 8) (select  (store  const_arr48 ((_ extract 31  0)  ((_ sign_extend 32)  ((_ zero_extend 24)  ?B1 ) ) ) (_ bv1 8) ) ((_ extract 31  0)  ((_ zero_extend 56)  (select  stdin (_ bv94 32) ) ) ) ) ) ) ) )
(check-sat)
(exit)
;   OK -- Elapsed: 2.007588e+01s
;   Solvable: true
;     arg01 = [242,255,255,255,255,255,255,255,255,255,255,255,255,255,255,255,255,255,255,255,255,255,255,255,255,255,255,255,255,255,255,255,255,255,255,255,255,255,255,255,255]
;     stdin = [208,242,203,0,82,68,134,242,131,242,242,0,242,64,242,242,145,105,242,116,242,242,5,242,16,242,242,137,242,242,242,242,242,242,242,242,40,242,242,242,242,253,0,122,54,53,242,4,242,5,105,242,95,242,242,242,242,242,16,204,242,242,242,242,242,242,242,242,13,242,242,8,242,229,113,242,195,61,242,133,1,242,242,242,242,242,194,242,242,242,242,139,237,242,20,242,255,255,255,255]
